(declare-datatype Nat ((zero) (succ (p Nat))))
(declare-datatype list ((nil) (cons (head Nat) (tail list))))
(define-fun-rec
  take
  ((x Nat) (y list)) list
  (match x
    ((zero nil)
     ((succ z)
      (match y
        ((nil nil)
         ((cons z2 xs) (cons z2 (take z xs)))))))))
(define-fun-rec
  plus
  ((x Nat) (y Nat)) Nat
  (match x
    ((zero y)
     ((succ z) (succ (plus z y))))))
(define-fun-rec
  minus
  ((x Nat) (y Nat)) Nat
  (match x
    ((zero zero)
     ((succ z)
      (match y
        ((zero zero)
         ((succ y2) (minus z y2))))))))
(define-fun-rec
  nmsorttd-half1
  ((x Nat)) Nat
  (ite
    (= x (succ zero)) zero
    (match x
      ((zero zero)
       ((succ y)
        (plus (succ zero)
          (nmsorttd-half1 (minus (succ y) (succ (succ zero))))))))))
(define-fun-rec
  leq
  ((x Nat) (y Nat)) Bool
  (match x
    ((zero true)
     ((succ z)
      (match y
        ((zero false)
         ((succ x2) (leq z x2))))))))
(define-fun-rec
  lmerge
  ((x list) (y list)) list
  (match x
    ((nil y)
     ((cons z x2)
      (match y
        ((nil (cons z x2))
         ((cons x3 x4)
          (ite
            (leq z x3) (cons z (lmerge x2 (cons x3 x4)))
            (cons x3 (lmerge (cons z x2) x4))))))))))
(define-fun-rec
  length
  ((x list)) Nat
  (match x
    ((nil zero)
     ((cons y l) (plus (succ zero) (length l))))))
(define-fun-rec
  insert2
  ((x Nat) (y list)) list
  (match y
    ((nil (cons x nil))
     ((cons z xs)
      (ite (leq x z) (cons x (cons z xs)) (cons z (insert2 x xs)))))))
(define-fun-rec
  isort
  ((x list)) list
  (match x
    ((nil nil)
     ((cons y xs) (insert2 y (isort xs))))))
(define-fun-rec
  drop
  ((x Nat) (y list)) list
  (match x
    ((zero y)
     ((succ z)
      (match y
        ((nil nil)
         ((cons z2 xs1) (drop z xs1))))))))
(define-fun-rec
  nmsorttd
  ((x list)) list
  (match x
    ((nil nil)
     ((cons y z)
      (match z
        ((nil (cons y nil))
         ((cons x2 x3)
          (let ((k (nmsorttd-half1 (length (cons y (cons x2 x3))))))
            (lmerge (nmsorttd (take k (cons y (cons x2 x3))))
              (nmsorttd (drop k (cons y (cons x2 x3)))))))))))))
(assert
  (forall ((x Nat) (y Nat) (z Nat))
    (= (plus x (plus y z)) (plus (plus x y) z))))
(assert (forall ((x Nat) (y Nat)) (= (plus x y) (plus y x))))
(assert (forall ((x Nat)) (= (plus x zero) x)))
(assert (forall ((x Nat)) (= (plus zero x) x)))
(assert (not (forall ((xs list)) (= (nmsorttd xs) (isort xs)))))
(check-sat)
